168
400
280	1
279	2
278	3
277	3
276	5
273	2
272	4
271	5
270	1
269	2
268	2
267	2
266	3
265	2
263	4
262	5
261	4
260	2
259	1
258	2
257	1
256	2
255	4
254	3
253	1
252	1
251	3
250	3
249	5
248	1
247	2
246	1
245	4
244	2
243	3
242	1
241	2
239	2
238	3
237	2
236	2
235	3
234	4
233	2
232	2
231	1
230	4
229	1
228	4
227	1
225	3
224	1
222	3
221	1
219	1
218	1
217	1
216	3
215	4
214	3
213	3
212	2
210	3
209	1
208	3
207	3
206	2
205	2
204	2
203	4
202	2
201	1
199	2
198	3
197	2
196	2
195	2
194	2
193	1
191	3
190	2
189	1
187	2
186	3
185	2
184	1
183	4
182	2
181	1
179	2
178	2
177	2
176	4
175	2
174	4
173	2
172	3
171	4
170	4
169	4
168	1
167	4
166	4
165	4
164	2
163	1
161	2
160	2
159	4
158	1
157	2
156	2
155	3
153	1
152	1
150	1
149	2
148	2
147	2
146	1
144	2
143	2
139	3
138	5
137	3
135	2
133	2
132	7
131	4
130	3
129	2
128	2
127	1
126	4
125	2
124	5
123	2
121	1
119	2
117	1
115	1
114	1
113	1
112	1
111	1
109	1
108	3
107	1
106	3
105	5
104	5
103	1
99	3
98	2
97	2
96	1
94	4
93	4
92	4
91	2
90	2
89	1
88	4
87	2
86	3
83	1
82	1
81	1
